p cnf 384 1370
-2 0
-3 0
-4 0
-5 0
-6 0
-7 0
1 0
43 8 0
-43 -8 0
8 9 10 11 12 13 14 0
-8 266 0
-9 267 0
-266 267 0
-266 -9 0
-10 268 0
-267 268 0
-267 -10 0
-11 269 0
-268 269 0
-268 -11 0
-12 270 0
-269 270 0
-269 -12 0
-13 271 0
-270 271 0
-270 -13 0
-271 -14 0
-8 1 15 0
-8 1 50 0
-8 15 50 0
-9 2 16 0
-9 2 51 0
-9 16 51 0
-10 3 17 0
-10 3 52 0
-10 17 52 0
-11 4 18 0
-11 4 53 0
-11 18 53 0
-12 5 19 0
-12 5 54 0
-12 19 54 0
-13 6 20 0
-13 6 55 0
-13 20 55 0
-14 7 21 0
-14 7 56 0
-14 21 56 0
-8 -1 -15 -50 0
-9 -2 -16 -51 0
-10 -3 -17 -52 0
-11 -4 -18 -53 0
-12 -5 -19 -54 0
-13 -6 -20 -55 0
-14 -7 -21 -56 0
-15 0
-17 0
-18 0
-19 0
-20 0
-21 0
16 0
9 23 58 0
-9 -23 0
-9 -58 0
-23 -58 0
22 23 24 25 26 27 28 0
-22 278 0
-23 279 0
-278 279 0
-278 -23 0
-24 280 0
-279 280 0
-279 -24 0
-25 281 0
-280 281 0
-280 -25 0
-26 282 0
-281 282 0
-281 -26 0
-27 283 0
-282 283 0
-282 -27 0
-283 -28 0
-22 15 29 0
-22 15 64 0
-22 29 64 0
-23 16 30 0
-23 16 65 0
-23 30 65 0
-24 17 31 0
-24 17 66 0
-24 31 66 0
-25 18 32 0
-25 18 67 0
-25 32 67 0
-26 19 33 0
-26 19 68 0
-26 33 68 0
-27 20 34 0
-27 20 69 0
-27 34 69 0
-28 21 35 0
-28 21 70 0
-28 35 70 0
-22 -15 -29 -64 0
-23 -16 -30 -65 0
-24 -17 -31 -66 0
-25 -18 -32 -67 0
-26 -19 -33 -68 0
-27 -20 -34 -69 0
-28 -21 -35 -70 0
29 30 31 32 33 34 35 0
-29 284 0
-30 285 0
-284 285 0
-284 -30 0
-31 286 0
-285 286 0
-285 -31 0
-32 287 0
-286 287 0
-286 -32 0
-33 288 0
-287 288 0
-287 -33 0
-34 289 0
-288 289 0
-288 -34 0
-289 -35 0
-29 22 36 0
-29 22 71 0
-29 36 71 0
-30 23 37 0
-30 23 72 0
-30 37 72 0
-31 24 38 0
-31 24 73 0
-31 38 73 0
-32 25 39 0
-32 25 74 0
-32 39 74 0
-33 26 40 0
-33 26 75 0
-33 40 75 0
-34 27 41 0
-34 27 76 0
-34 41 76 0
-35 28 42 0
-35 28 77 0
-35 42 77 0
-29 -22 -36 -71 0
-30 -23 -37 -72 0
-31 -24 -38 -73 0
-32 -25 -39 -74 0
-33 -26 -40 -75 0
-34 -27 -41 -76 0
-35 -28 -42 -77 0
36 37 38 39 40 41 42 0
-36 290 0
-37 291 0
-290 291 0
-290 -37 0
-38 292 0
-291 292 0
-291 -38 0
-39 293 0
-292 293 0
-292 -39 0
-40 294 0
-293 294 0
-293 -40 0
-41 295 0
-294 295 0
-294 -41 0
-295 -42 0
-36 78 0
-36 29 0
-37 79 0
-37 30 0
-38 80 0
-38 31 0
-39 81 0
-39 32 0
-40 82 0
-40 33 0
-41 83 0
-41 34 0
-42 84 0
-42 35 0
-43 0
-44 0
-45 0
-47 0
-48 0
-49 0
46 0
88 53 4 0
-88 -53 0
-88 -4 0
-53 -4 0
50 51 52 53 54 55 56 0
-50 302 0
-51 303 0
-302 303 0
-302 -51 0
-52 304 0
-303 304 0
-303 -52 0
-53 305 0
-304 305 0
-304 -53 0
-54 306 0
-305 306 0
-305 -54 0
-55 307 0
-306 307 0
-306 -55 0
-307 -56 0
-50 92 57 8 0
-50 92 57 43 0
-50 92 8 43 0
-50 57 8 43 0
-51 93 58 9 0
-51 93 58 44 0
-51 93 9 44 0
-51 58 9 44 0
-52 94 59 10 0
-52 94 59 45 0
-52 94 10 45 0
-52 59 10 45 0
-53 95 60 11 0
-53 95 60 46 0
-53 95 11 46 0
-53 60 11 46 0
-54 96 61 12 0
-54 96 61 47 0
-54 96 12 47 0
-54 61 12 47 0
-55 97 62 13 0
-55 97 62 48 0
-55 97 13 48 0
-55 62 13 48 0
-56 98 63 14 0
-56 98 63 49 0
-56 98 14 49 0
-56 63 14 49 0
-50 -92 -57 -8 0
-50 -92 -57 -43 0
-50 -92 -8 -43 0
-50 -57 -8 -43 0
-51 -93 -58 -9 0
-51 -93 -58 -44 0
-51 -93 -9 -44 0
-51 -58 -9 -44 0
-52 -94 -59 -10 0
-52 -94 -59 -45 0
-52 -94 -10 -45 0
-52 -59 -10 -45 0
-53 -95 -60 -11 0
-53 -95 -60 -46 0
-53 -95 -11 -46 0
-53 -60 -11 -46 0
-54 -96 -61 -12 0
-54 -96 -61 -47 0
-54 -96 -12 -47 0
-54 -61 -12 -47 0
-55 -97 -62 -13 0
-55 -97 -62 -48 0
-55 -97 -13 -48 0
-55 -62 -13 -48 0
-56 -98 -63 -14 0
-56 -98 -63 -49 0
-56 -98 -14 -49 0
-56 -63 -14 -49 0
57 58 59 60 61 62 63 0
-57 308 0
-58 309 0
-308 309 0
-308 -58 0
-59 310 0
-309 310 0
-309 -59 0
-60 311 0
-310 311 0
-310 -60 0
-61 312 0
-311 312 0
-311 -61 0
-62 313 0
-312 313 0
-312 -62 0
-313 -63 0
-57 99 64 15 0
-57 99 64 50 0
-57 99 15 50 0
-57 64 15 50 0
-58 100 65 16 0
-58 100 65 51 0
-58 100 16 51 0
-58 65 16 51 0
-59 101 66 17 0
-59 101 66 52 0
-59 101 17 52 0
-59 66 17 52 0
-60 102 67 18 0
-60 102 67 53 0
-60 102 18 53 0
-60 67 18 53 0
-61 103 68 19 0
-61 103 68 54 0
-61 103 19 54 0
-61 68 19 54 0
-62 104 69 20 0
-62 104 69 55 0
-62 104 20 55 0
-62 69 20 55 0
-63 105 70 21 0
-63 105 70 56 0
-63 105 21 56 0
-63 70 21 56 0
-57 -99 -64 -15 0
-57 -99 -64 -50 0
-57 -99 -15 -50 0
-57 -64 -15 -50 0
-58 -100 -65 -16 0
-58 -100 -65 -51 0
-58 -100 -16 -51 0
-58 -65 -16 -51 0
-59 -101 -66 -17 0
-59 -101 -66 -52 0
-59 -101 -17 -52 0
-59 -66 -17 -52 0
-60 -102 -67 -18 0
-60 -102 -67 -53 0
-60 -102 -18 -53 0
-60 -67 -18 -53 0
-61 -103 -68 -19 0
-61 -103 -68 -54 0
-61 -103 -19 -54 0
-61 -68 -19 -54 0
-62 -104 -69 -20 0
-62 -104 -69 -55 0
-62 -104 -20 -55 0
-62 -69 -20 -55 0
-63 -105 -70 -21 0
-63 -105 -70 -56 0
-63 -105 -21 -56 0
-63 -70 -21 -56 0
64 65 66 67 68 69 70 0
-64 314 0
-65 315 0
-314 315 0
-314 -65 0
-66 316 0
-315 316 0
-315 -66 0
-67 317 0
-316 317 0
-316 -67 0
-68 318 0
-317 318 0
-317 -68 0
-69 319 0
-318 319 0
-318 -69 0
-319 -70 0
-64 106 71 22 0
-64 106 71 57 0
-64 106 22 57 0
-64 71 22 57 0
-65 107 72 23 0
-65 107 72 58 0
-65 107 23 58 0
-65 72 23 58 0
-66 108 73 24 0
-66 108 73 59 0
-66 108 24 59 0
-66 73 24 59 0
-67 109 74 25 0
-67 109 74 60 0
-67 109 25 60 0
-67 74 25 60 0
-68 110 75 26 0
-68 110 75 61 0
-68 110 26 61 0
-68 75 26 61 0
-69 111 76 27 0
-69 111 76 62 0
-69 111 27 62 0
-69 76 27 62 0
-70 112 77 28 0
-70 112 77 63 0
-70 112 28 63 0
-70 77 28 63 0
-64 -106 -71 -22 0
-64 -106 -71 -57 0
-64 -106 -22 -57 0
-64 -71 -22 -57 0
-65 -107 -72 -23 0
-65 -107 -72 -58 0
-65 -107 -23 -58 0
-65 -72 -23 -58 0
-66 -108 -73 -24 0
-66 -108 -73 -59 0
-66 -108 -24 -59 0
-66 -73 -24 -59 0
-67 -109 -74 -25 0
-67 -109 -74 -60 0
-67 -109 -25 -60 0
-67 -74 -25 -60 0
-68 -110 -75 -26 0
-68 -110 -75 -61 0
-68 -110 -26 -61 0
-68 -75 -26 -61 0
-69 -111 -76 -27 0
-69 -111 -76 -62 0
-69 -111 -27 -62 0
-69 -76 -27 -62 0
-70 -112 -77 -28 0
-70 -112 -77 -63 0
-70 -112 -28 -63 0
-70 -77 -28 -63 0
-72 0
-73 0
-74 0
-75 0
-76 0
-77 0
71 0
113 78 29 64 0
-113 -78 0
-113 -29 0
-113 -64 0
-78 -29 0
-78 -64 0
-29 -64 0
78 79 80 81 82 83 84 0
-78 326 0
-79 327 0
-326 327 0
-326 -79 0
-80 328 0
-327 328 0
-327 -80 0
-81 329 0
-328 329 0
-328 -81 0
-82 330 0
-329 330 0
-329 -82 0
-83 331 0
-330 331 0
-330 -83 0
-331 -84 0
-78 120 71 0
-78 120 36 0
-78 71 36 0
-79 121 72 0
-79 121 37 0
-79 72 37 0
-80 122 73 0
-80 122 38 0
-80 73 38 0
-81 123 74 0
-81 123 39 0
-81 74 39 0
-82 124 75 0
-82 124 40 0
-82 75 40 0
-83 125 76 0
-83 125 41 0
-83 76 41 0
-84 126 77 0
-84 126 42 0
-84 77 42 0
-78 -120 -71 -36 0
-79 -121 -72 -37 0
-80 -122 -73 -38 0
-81 -123 -74 -39 0
-82 -124 -75 -40 0
-83 -125 -76 -41 0
-84 -126 -77 -42 0
85 86 87 88 89 90 91 0
-85 332 0
-86 333 0
-332 333 0
-332 -86 0
-87 334 0
-333 334 0
-333 -87 0
-88 335 0
-334 335 0
-334 -88 0
-89 336 0
-335 336 0
-335 -89 0
-90 337 0
-336 337 0
-336 -90 0
-337 -91 0
-85 127 92 0
-85 127 43 0
-85 92 43 0
-86 128 93 0
-86 128 44 0
-86 93 44 0
-87 129 94 0
-87 129 45 0
-87 94 45 0
-88 130 95 0
-88 130 46 0
-88 95 46 0
-89 131 96 0
-89 131 47 0
-89 96 47 0
-90 132 97 0
-90 132 48 0
-90 97 48 0
-91 133 98 0
-91 133 49 0
-91 98 49 0
-85 -127 -92 -43 0
-86 -128 -93 -44 0
-87 -129 -94 -45 0
-88 -130 -95 -46 0
-89 -131 -96 -47 0
-90 -132 -97 -48 0
-91 -133 -98 -49 0
-92 0
-93 0
-94 0
-96 0
-97 0
-98 0
95 0
137 102 53 88 0
-137 -102 0
-137 -53 0
-137 -88 0
-102 -53 0
-102 -88 0
-53 -88 0
-99 0
-100 0
-102 0
-103 0
-104 0
-105 0
101 0
143 108 59 94 0
-143 -108 0
-143 -59 0
-143 -94 0
-108 -59 0
-108 -94 0
-59 -94 0
106 107 108 109 110 111 112 0
-106 350 0
-107 351 0
-350 351 0
-350 -107 0
-108 352 0
-351 352 0
-351 -108 0
-109 353 0
-352 353 0
-352 -109 0
-110 354 0
-353 354 0
-353 -110 0
-111 355 0
-354 355 0
-354 -111 0
-355 -112 0
-106 148 113 64 0
-106 148 113 99 0
-106 148 64 99 0
-106 113 64 99 0
-107 149 114 65 0
-107 149 114 100 0
-107 149 65 100 0
-107 114 65 100 0
-108 150 115 66 0
-108 150 115 101 0
-108 150 66 101 0
-108 115 66 101 0
-109 151 116 67 0
-109 151 116 102 0
-109 151 67 102 0
-109 116 67 102 0
-110 152 117 68 0
-110 152 117 103 0
-110 152 68 103 0
-110 117 68 103 0
-111 153 118 69 0
-111 153 118 104 0
-111 153 69 104 0
-111 118 69 104 0
-112 154 119 70 0
-112 154 119 105 0
-112 154 70 105 0
-112 119 70 105 0
-106 -148 -113 -64 0
-106 -148 -113 -99 0
-106 -148 -64 -99 0
-106 -113 -64 -99 0
-107 -149 -114 -65 0
-107 -149 -114 -100 0
-107 -149 -65 -100 0
-107 -114 -65 -100 0
-108 -150 -115 -66 0
-108 -150 -115 -101 0
-108 -150 -66 -101 0
-108 -115 -66 -101 0
-109 -151 -116 -67 0
-109 -151 -116 -102 0
-109 -151 -67 -102 0
-109 -116 -67 -102 0
-110 -152 -117 -68 0
-110 -152 -117 -103 0
-110 -152 -68 -103 0
-110 -117 -68 -103 0
-111 -153 -118 -69 0
-111 -153 -118 -104 0
-111 -153 -69 -104 0
-111 -118 -69 -104 0
-112 -154 -119 -70 0
-112 -154 -119 -105 0
-112 -154 -70 -105 0
-112 -119 -70 -105 0
-113 0
-114 0
-116 0
-117 0
-118 0
-119 0
115 0
157 122 73 108 0
-157 -122 0
-157 -73 0
-157 -108 0
-122 -73 0
-122 -108 0
-73 -108 0
120 121 122 123 124 125 126 0
-120 362 0
-121 363 0
-362 363 0
-362 -121 0
-122 364 0
-363 364 0
-363 -122 0
-123 365 0
-364 365 0
-364 -123 0
-124 366 0
-365 366 0
-365 -124 0
-125 367 0
-366 367 0
-366 -125 0
-367 -126 0
-120 162 113 0
-120 162 78 0
-120 113 78 0
-121 163 114 0
-121 163 79 0
-121 114 79 0
-122 164 115 0
-122 164 80 0
-122 115 80 0
-123 165 116 0
-123 165 81 0
-123 116 81 0
-124 166 117 0
-124 166 82 0
-124 117 82 0
-125 167 118 0
-125 167 83 0
-125 118 83 0
-126 168 119 0
-126 168 84 0
-126 119 84 0
-120 -162 -113 -78 0
-121 -163 -114 -79 0
-122 -164 -115 -80 0
-123 -165 -116 -81 0
-124 -166 -117 -82 0
-125 -167 -118 -83 0
-126 -168 -119 -84 0
127 128 129 130 131 132 133 0
-127 368 0
-128 369 0
-368 369 0
-368 -128 0
-129 370 0
-369 370 0
-369 -129 0
-130 371 0
-370 371 0
-370 -130 0
-131 372 0
-371 372 0
-371 -131 0
-132 373 0
-372 373 0
-372 -132 0
-373 -133 0
-127 169 134 0
-127 169 85 0
-127 134 85 0
-128 170 135 0
-128 170 86 0
-128 135 86 0
-129 171 136 0
-129 171 87 0
-129 136 87 0
-130 172 137 0
-130 172 88 0
-130 137 88 0
-131 173 138 0
-131 173 89 0
-131 138 89 0
-132 174 139 0
-132 174 90 0
-132 139 90 0
-133 175 140 0
-133 175 91 0
-133 140 91 0
-127 -169 -134 -85 0
-128 -170 -135 -86 0
-129 -171 -136 -87 0
-130 -172 -137 -88 0
-131 -173 -138 -89 0
-132 -174 -139 -90 0
-133 -175 -140 -91 0
-134 0
-135 0
-136 0
-137 0
-138 0
-140 0
139 0
181 146 97 132 0
-181 -146 0
-181 -97 0
-181 -132 0
-146 -97 0
-146 -132 0
-97 -132 0
-141 0
-142 0
-143 0
-144 0
-145 0
-146 0
147 0
189 154 105 140 0
-189 -154 0
-189 -105 0
-189 -140 0
-154 -105 0
-154 -140 0
-105 -140 0
148 149 150 151 152 153 154 0
-148 386 0
-149 387 0
-386 387 0
-386 -149 0
-150 388 0
-387 388 0
-387 -150 0
-151 389 0
-388 389 0
-388 -151 0
-152 390 0
-389 390 0
-389 -152 0
-153 391 0
-390 391 0
-390 -153 0
-391 -154 0
-148 190 155 106 0
-148 190 155 141 0
-148 190 106 141 0
-148 155 106 141 0
-149 191 156 107 0
-149 191 156 142 0
-149 191 107 142 0
-149 156 107 142 0
-150 192 157 108 0
-150 192 157 143 0
-150 192 108 143 0
-150 157 108 143 0
-151 193 158 109 0
-151 193 158 144 0
-151 193 109 144 0
-151 158 109 144 0
-152 194 159 110 0
-152 194 159 145 0
-152 194 110 145 0
-152 159 110 145 0
-153 195 160 111 0
-153 195 160 146 0
-153 195 111 146 0
-153 160 111 146 0
-154 196 161 112 0
-154 196 161 147 0
-154 196 112 147 0
-154 161 112 147 0
-148 -190 -155 -106 0
-148 -190 -155 -141 0
-148 -190 -106 -141 0
-148 -155 -106 -141 0
-149 -191 -156 -107 0
-149 -191 -156 -142 0
-149 -191 -107 -142 0
-149 -156 -107 -142 0
-150 -192 -157 -108 0
-150 -192 -157 -143 0
-150 -192 -108 -143 0
-150 -157 -108 -143 0
-151 -193 -158 -109 0
-151 -193 -158 -144 0
-151 -193 -109 -144 0
-151 -158 -109 -144 0
-152 -194 -159 -110 0
-152 -194 -159 -145 0
-152 -194 -110 -145 0
-152 -159 -110 -145 0
-153 -195 -160 -111 0
-153 -195 -160 -146 0
-153 -195 -111 -146 0
-153 -160 -111 -146 0
-154 -196 -161 -112 0
-154 -196 -161 -147 0
-154 -196 -112 -147 0
-154 -161 -112 -147 0
155 156 157 158 159 160 161 0
-155 392 0
-156 393 0
-392 393 0
-392 -156 0
-157 394 0
-393 394 0
-393 -157 0
-158 395 0
-394 395 0
-394 -158 0
-159 396 0
-395 396 0
-395 -159 0
-160 397 0
-396 397 0
-396 -160 0
-397 -161 0
-155 197 162 113 0
-155 197 162 148 0
-155 197 113 148 0
-155 162 113 148 0
-156 198 163 114 0
-156 198 163 149 0
-156 198 114 149 0
-156 163 114 149 0
-157 199 164 115 0
-157 199 164 150 0
-157 199 115 150 0
-157 164 115 150 0
-158 200 165 116 0
-158 200 165 151 0
-158 200 116 151 0
-158 165 116 151 0
-159 201 166 117 0
-159 201 166 152 0
-159 201 117 152 0
-159 166 117 152 0
-160 202 167 118 0
-160 202 167 153 0
-160 202 118 153 0
-160 167 118 153 0
-161 203 168 119 0
-161 203 168 154 0
-161 203 119 154 0
-161 168 119 154 0
-155 -197 -162 -113 0
-155 -197 -162 -148 0
-155 -197 -113 -148 0
-155 -162 -113 -148 0
-156 -198 -163 -114 0
-156 -198 -163 -149 0
-156 -198 -114 -149 0
-156 -163 -114 -149 0
-157 -199 -164 -115 0
-157 -199 -164 -150 0
-157 -199 -115 -150 0
-157 -164 -115 -150 0
-158 -200 -165 -116 0
-158 -200 -165 -151 0
-158 -200 -116 -151 0
-158 -165 -116 -151 0
-159 -201 -166 -117 0
-159 -201 -166 -152 0
-159 -201 -117 -152 0
-159 -166 -117 -152 0
-160 -202 -167 -118 0
-160 -202 -167 -153 0
-160 -202 -118 -153 0
-160 -167 -118 -153 0
-161 -203 -168 -119 0
-161 -203 -168 -154 0
-161 -203 -119 -154 0
-161 -168 -119 -154 0
162 163 164 165 166 167 168 0
-162 398 0
-163 399 0
-398 399 0
-398 -163 0
-164 400 0
-399 400 0
-399 -164 0
-165 401 0
-400 401 0
-400 -165 0
-166 402 0
-401 402 0
-401 -166 0
-167 403 0
-402 403 0
-402 -167 0
-403 -168 0
-162 204 155 0
-162 204 120 0
-162 155 120 0
-163 205 156 0
-163 205 121 0
-163 156 121 0
-164 206 157 0
-164 206 122 0
-164 157 122 0
-165 207 158 0
-165 207 123 0
-165 158 123 0
-166 208 159 0
-166 208 124 0
-166 159 124 0
-167 209 160 0
-167 209 125 0
-167 160 125 0
-168 210 161 0
-168 210 126 0
-168 161 126 0
-162 -204 -155 -120 0
-163 -205 -156 -121 0
-164 -206 -157 -122 0
-165 -207 -158 -123 0
-166 -208 -159 -124 0
-167 -209 -160 -125 0
-168 -210 -161 -126 0
169 170 171 172 173 174 175 0
-169 404 0
-170 405 0
-404 405 0
-404 -170 0
-171 406 0
-405 406 0
-405 -171 0
-172 407 0
-406 407 0
-406 -172 0
-173 408 0
-407 408 0
-407 -173 0
-174 409 0
-408 409 0
-408 -174 0
-409 -175 0
-169 211 176 0
-169 211 127 0
-169 176 127 0
-170 212 177 0
-170 212 128 0
-170 177 128 0
-171 213 178 0
-171 213 129 0
-171 178 129 0
-172 214 179 0
-172 214 130 0
-172 179 130 0
-173 215 180 0
-173 215 131 0
-173 180 131 0
-174 216 181 0
-174 216 132 0
-174 181 132 0
-175 217 182 0
-175 217 133 0
-175 182 133 0
-169 -211 -176 -127 0
-170 -212 -177 -128 0
-171 -213 -178 -129 0
-172 -214 -179 -130 0
-173 -215 -180 -131 0
-174 -216 -181 -132 0
-175 -217 -182 -133 0
-176 0
-177 0
-178 0
-179 0
-181 0
-182 0
180 0
222 187 138 173 0
-222 -187 0
-222 -138 0
-222 -173 0
-187 -138 0
-187 -173 0
-138 -173 0
183 184 185 186 187 188 189 0
-183 416 0
-184 417 0
-416 417 0
-416 -184 0
-185 418 0
-417 418 0
-417 -185 0
-186 419 0
-418 419 0
-418 -186 0
-187 420 0
-419 420 0
-419 -187 0
-188 421 0
-420 421 0
-420 -188 0
-421 -189 0
-183 225 190 141 0
-183 225 190 176 0
-183 225 141 176 0
-183 190 141 176 0
-184 226 191 142 0
-184 226 191 177 0
-184 226 142 177 0
-184 191 142 177 0
-185 227 192 143 0
-185 227 192 178 0
-185 227 143 178 0
-185 192 143 178 0
-186 228 193 144 0
-186 228 193 179 0
-186 228 144 179 0
-186 193 144 179 0
-187 229 194 145 0
-187 229 194 180 0
-187 229 145 180 0
-187 194 145 180 0
-188 230 195 146 0
-188 230 195 181 0
-188 230 146 181 0
-188 195 146 181 0
-189 231 196 147 0
-189 231 196 182 0
-189 231 147 182 0
-189 196 147 182 0
-183 -225 -190 -141 0
-183 -225 -190 -176 0
-183 -225 -141 -176 0
-183 -190 -141 -176 0
-184 -226 -191 -142 0
-184 -226 -191 -177 0
-184 -226 -142 -177 0
-184 -191 -142 -177 0
-185 -227 -192 -143 0
-185 -227 -192 -178 0
-185 -227 -143 -178 0
-185 -192 -143 -178 0
-186 -228 -193 -144 0
-186 -228 -193 -179 0
-186 -228 -144 -179 0
-186 -193 -144 -179 0
-187 -229 -194 -145 0
-187 -229 -194 -180 0
-187 -229 -145 -180 0
-187 -194 -145 -180 0
-188 -230 -195 -146 0
-188 -230 -195 -181 0
-188 -230 -146 -181 0
-188 -195 -146 -181 0
-189 -231 -196 -147 0
-189 -231 -196 -182 0
-189 -231 -147 -182 0
-189 -196 -147 -182 0
190 191 192 193 194 195 196 0
-190 422 0
-191 423 0
-422 423 0
-422 -191 0
-192 424 0
-423 424 0
-423 -192 0
-193 425 0
-424 425 0
-424 -193 0
-194 426 0
-425 426 0
-425 -194 0
-195 427 0
-426 427 0
-426 -195 0
-427 -196 0
-190 232 197 148 0
-190 232 197 183 0
-190 232 148 183 0
-190 197 148 183 0
-191 233 198 149 0
-191 233 198 184 0
-191 233 149 184 0
-191 198 149 184 0
-192 234 199 150 0
-192 234 199 185 0
-192 234 150 185 0
-192 199 150 185 0
-193 235 200 151 0
-193 235 200 186 0
-193 235 151 186 0
-193 200 151 186 0
-194 236 201 152 0
-194 236 201 187 0
-194 236 152 187 0
-194 201 152 187 0
-195 237 202 153 0
-195 237 202 188 0
-195 237 153 188 0
-195 202 153 188 0
-196 238 203 154 0
-196 238 203 189 0
-196 238 154 189 0
-196 203 154 189 0
-190 -232 -197 -148 0
-190 -232 -197 -183 0
-190 -232 -148 -183 0
-190 -197 -148 -183 0
-191 -233 -198 -149 0
-191 -233 -198 -184 0
-191 -233 -149 -184 0
-191 -198 -149 -184 0
-192 -234 -199 -150 0
-192 -234 -199 -185 0
-192 -234 -150 -185 0
-192 -199 -150 -185 0
-193 -235 -200 -151 0
-193 -235 -200 -186 0
-193 -235 -151 -186 0
-193 -200 -151 -186 0
-194 -236 -201 -152 0
-194 -236 -201 -187 0
-194 -236 -152 -187 0
-194 -201 -152 -187 0
-195 -237 -202 -153 0
-195 -237 -202 -188 0
-195 -237 -153 -188 0
-195 -202 -153 -188 0
-196 -238 -203 -154 0
-196 -238 -203 -189 0
-196 -238 -154 -189 0
-196 -203 -154 -189 0
-197 0
-198 0
-199 0
-200 0
-201 0
-202 0
203 0
245 210 161 196 0
-245 -210 0
-245 -161 0
-245 -196 0
-210 -161 0
-210 -196 0
-161 -196 0
204 205 206 207 208 209 210 0
-204 434 0
-205 435 0
-434 435 0
-434 -205 0
-206 436 0
-435 436 0
-435 -206 0
-207 437 0
-436 437 0
-436 -207 0
-208 438 0
-437 438 0
-437 -208 0
-209 439 0
-438 439 0
-438 -209 0
-439 -210 0
-204 246 197 0
-204 246 162 0
-204 197 162 0
-205 247 198 0
-205 247 163 0
-205 198 163 0
-206 248 199 0
-206 248 164 0
-206 199 164 0
-207 249 200 0
-207 249 165 0
-207 200 165 0
-208 250 201 0
-208 250 166 0
-208 201 166 0
-209 251 202 0
-209 251 167 0
-209 202 167 0
-210 252 203 0
-210 252 168 0
-210 203 168 0
-204 -246 -197 -162 0
-205 -247 -198 -163 0
-206 -248 -199 -164 0
-207 -249 -200 -165 0
-208 -250 -201 -166 0
-209 -251 -202 -167 0
-210 -252 -203 -168 0
211 212 213 214 215 216 217 0
-211 440 0
-212 441 0
-440 441 0
-440 -212 0
-213 442 0
-441 442 0
-441 -213 0
-214 443 0
-442 443 0
-442 -214 0
-215 444 0
-443 444 0
-443 -215 0
-216 445 0
-444 445 0
-444 -216 0
-445 -217 0
-211 169 0
-211 218 0
-212 170 0
-212 219 0
-213 171 0
-213 220 0
-214 172 0
-214 221 0
-215 173 0
-215 222 0
-216 174 0
-216 223 0
-217 175 0
-217 224 0
218 219 220 221 222 223 224 0
-218 446 0
-219 447 0
-446 447 0
-446 -219 0
-220 448 0
-447 448 0
-447 -220 0
-221 449 0
-448 449 0
-448 -221 0
-222 450 0
-449 450 0
-449 -222 0
-223 451 0
-450 451 0
-450 -223 0
-451 -224 0
-218 176 225 0
-218 176 211 0
-218 225 211 0
-219 177 226 0
-219 177 212 0
-219 226 212 0
-220 178 227 0
-220 178 213 0
-220 227 213 0
-221 179 228 0
-221 179 214 0
-221 228 214 0
-222 180 229 0
-222 180 215 0
-222 229 215 0
-223 181 230 0
-223 181 216 0
-223 230 216 0
-224 182 231 0
-224 182 217 0
-224 231 217 0
-218 -176 -225 -211 0
-219 -177 -226 -212 0
-220 -178 -227 -213 0
-221 -179 -228 -214 0
-222 -180 -229 -215 0
-223 -181 -230 -216 0
-224 -182 -231 -217 0
-225 0
-226 0
-227 0
-228 0
-229 0
-231 0
230 0
188 237 223 0
-188 -237 0
-188 -223 0
-237 -223 0
-232 0
-233 0
-234 0
-235 0
-237 0
-238 0
236 0
194 243 229 0
-194 -243 0
-194 -229 0
-243 -229 0
-239 0
-241 0
-242 0
-243 0
-244 0
-245 0
240 0
198 247 233 0
-198 -247 0
-198 -233 0
-247 -233 0
246 247 248 249 250 251 252 0
-246 470 0
-247 471 0
-470 471 0
-470 -247 0
-248 472 0
-471 472 0
-471 -248 0
-249 473 0
-472 473 0
-472 -249 0
-250 474 0
-473 474 0
-473 -250 0
-251 475 0
-474 475 0
-474 -251 0
-475 -252 0
-246 204 0
-246 239 0
-247 205 0
-247 240 0
-248 206 0
-248 241 0
-249 207 0
-249 242 0
-250 208 0
-250 243 0
-251 209 0
-251 244 0
-252 210 0
-252 245 0